#######################################
### Exact MIP solver for the HHCRSP ###
#######################################
-- Instance file: new-instances/HHCRSP_50_10_86_1.0_C_RC.txt
-- Max threads: 4
-- Time limit: 999999 seconds
-- Use initial solution: No
Trivial flow violations prevented generating 6154 variables.
Model exported.
Version identifier: 20.1.0.0 | 2020-11-10 | 9bedb6d68
CPXPARAM_Threads                                 4
CPXPARAM_TimeLimit                               999999
Parallel mode: deterministic, using up to 4 threads for concurrent optimization:
 * Starting dual Simplex on 1 thread...
 * Starting Barrier on 3 threads...
Tried aggregator 1 time.
LP Presolve eliminated 1350 rows and 347 columns.
Reduced LP has 6528 rows, 6346 columns, and 52067 nonzeros.
Presolve time = 0.03 sec. (15.56 ticks)
Symmetry aggregator did 4422 additional substitutions.

Iteration log . . .
Iteration:     1   Dual objective     =             0.000000
Iteration:   209   Dual objective     =           130.333333

Dual crossover.
  Dual:  Fixing 110 variables.
      109 DMoves:  Infeasibility  3.02968322e-15  Objective  1.30351707e+02
        0 DMoves:  Infeasibility  5.44010859e-15  Objective  1.30351707e+02
  Dual:  Pushed 10, exchanged 100.
  Primal:  Fixing 18 variables.
       17 PMoves:  Infeasibility  2.71050543e-20  Objective  1.30351707e+02
        0 PMoves:  Infeasibility  2.71050543e-20  Objective  1.30351707e+02
  Primal:  Pushed 1, exchanged 17.

Dual simplex solved model.


Solution status from MIP model:
-- Processing time: 0.061 sec.
-- Memory used: 72.9287 MB
-- Best bound: inf
-- Obj value: 130.352
-- Gap: inf%
-- Total distance: 391.055
-- Total tardiness: 0
-- Largest tardiness: 0
